
Starting CP-SAT solver v9.15.6755
Parameters: random_seed: 2026072902 max_time_in_seconds: 2500 log_search_progress: true cp_model_presolve: true linearization_level: 2 num_search_workers: 4 cp_model_probing_level: 2 symmetry_level: 2

Initial satisfaction model '': (model_fingerprint: 0xbb4b607ae2e0e7d0)
#Variables: 724 (598 primary variables)
  - 724 Booleans in [0,1]
#kBoolAnd: 110 (#enforced: 110) (#literals: 330)
#kBoolOr: 110 (#enforced: 110) (#literals: 220)
#kExactlyOne: 87 (#literals: 261)
#kLinear1: 42 (#enforced: 6)
#kLinear2: 336 (#enforced: 336) (#complex_domain: 110)
#kLinear3: 1'600 (#enforced: 6)
#kLinearN: 1'132 (#enforced: 243) (#terms: 9'111)

Starting presolve at 0.00s
  5.58e-04s  0.00e+00d  [DetectDominanceRelations] 
  6.90e-03s  0.00e+00d  [PresolveToFixPoint] #num_loops=3 #num_dual_strengthening=1 
  3.04e-05s  0.00e+00d  [ExtractEncodingFromLinear] #potential_supersets=84 
  2.39e-04s  0.00e+00d  [DetectDuplicateColumns] 
  8.18e-05s  0.00e+00d  [DetectDuplicateConstraints] #duplicates=14 
[Symmetry] Graph for symmetry has 4'814 nodes and 15'296 arcs.
[Symmetry] Symmetry computation done. time: 0.0010137 dtime: 0.00179419
[SAT presolve] num removable Booleans: 220 / 606
[SAT presolve] num trivial clauses: 0
[SAT presolve] [0s] clauses:2'669 literals:7'294 vars:500 one_side_vars:60 simple_definition:1 singleton_clauses:0
[SAT presolve] [0.000176986s] clauses:2'668 literals:7'287 vars:500 one_side_vars:60 simple_definition:1 singleton_clauses:0
[SAT presolve] [0.000548513s] clauses:2'179 literals:6'480 vars:372 one_side_vars:67 simple_definition:70 singleton_clauses:0
  9.15e-05s  0.00e+00d  [DetectDuplicateConstraintsWithDifferentEnforcements] #without_enforcements=7 
  4.15e-03s  2.07e-03d  [Probe] #probed=1'258 #fixed_bools=8 #equiv=6 #new_binary_clauses=787 
  3.55e-04s  2.76e-04d  [MaxClique] Merged 535 constraints with 1'204 literals into 468 constraints with 1'096 literals
  7.19e-04s  0.00e+00d  [DetectDominanceRelations] 
  2.46e-03s  0.00e+00d  [PresolveToFixPoint] #num_loops=1 #num_dual_strengthening=1 
  9.81e-04s  0.00e+00d  [ProcessAtMostOneAndLinear] 
  7.60e-05s  0.00e+00d  [DetectDuplicateConstraints] #duplicates=4 
  6.34e-05s  0.00e+00d  [DetectDuplicateConstraintsWithDifferentEnforcements] 
  1.01e-03s  6.49e-05d  [DetectDominatedLinearConstraints] #relevant_constraints=821 #num_inclusions=346 #num_redundant=6 
  9.16e-05s  0.00e+00d  [DetectDifferentVariables] 
  6.22e-04s  8.26e-05d  [ProcessSetPPC] #relevant_constraints=2'939 #num_inclusions=91 
  2.21e-04s  3.34e-05d  [TransformClausesToExactlyOne] #num_amos=493 #num_clauses=1'644 #num_checked=1'644 
  3.87e-05s  0.00e+00d  [DetectEncodedComplexDomains] 
  2.49e-05s  9.00e-08d  [FindAlmostIdenticalLinearConstraints] #num_tested_pairs=1 
  7.44e-04s  1.37e-03d  [FindBigAtMostOneAndLinearOverlap] 
  1.22e-03s  1.21e-03d  [FindBigVerticalLinearOverlap] #blocks=3 #saved_nz=316 
  2.80e-04s  5.95e-04d  [FindBigHorizontalLinearOverlap] #linears=454 
  2.60e-04s  2.66e-05d  [MergeClauses] #num_collisions=22 #num_merges=22 #num_saved_literals=110 
  6.79e-04s  0.00e+00d  [DetectDominanceRelations] 
  2.36e-03s  0.00e+00d  [PresolveToFixPoint] #num_loops=2 #num_dual_strengthening=1 
  6.72e-04s  0.00e+00d  [DetectDominanceRelations] 
  2.31e-03s  0.00e+00d  [PresolveToFixPoint] #num_loops=1 #num_dual_strengthening=1 
  1.30e-04s  0.00e+00d  [DetectDuplicateColumns] 
  6.60e-05s  0.00e+00d  [DetectDuplicateConstraints] 
[Symmetry] Graph for symmetry has 4'229 nodes and 13'056 arcs.
[Symmetry] Symmetry computation done. time: 0.000762835 dtime: 0.00127261
[SAT presolve] num removable Booleans: 91 / 463
[SAT presolve] num trivial clauses: 0
[SAT presolve] [0s] clauses:2'088 literals:6'217 vars:438 one_side_vars:140 simple_definition:82 singleton_clauses:0
[SAT presolve] [0.00017333s] clauses:2'088 literals:6'047 vars:438 one_side_vars:187 simple_definition:62 singleton_clauses:0
[SAT presolve] [0.000236074s] clauses:2'081 literals:6'040 vars:435 one_side_vars:188 simple_definition:54 singleton_clauses:0
  1.13e-04s  0.00e+00d  [DetectDuplicateConstraintsWithDifferentEnforcements] 
  4.32e-03s  1.87e-03d  [Probe] #probed=1'250 #new_binary_clauses=549 
  3.23e-04s  2.94e-04d  [MaxClique] Merged 489 constraints with 1'076 literals into 475 constraints with 1'068 literals
  6.87e-04s  0.00e+00d  [DetectDominanceRelations] 
  2.33e-03s  0.00e+00d  [PresolveToFixPoint] #num_loops=1 #num_dual_strengthening=1 
  8.53e-04s  0.00e+00d  [ProcessAtMostOneAndLinear] 
  7.82e-05s  0.00e+00d  [DetectDuplicateConstraints] 
  6.73e-05s  0.00e+00d  [DetectDuplicateConstraintsWithDifferentEnforcements] 
  1.31e-03s  6.29e-05d  [DetectDominatedLinearConstraints] #relevant_constraints=818 #num_inclusions=356 
  9.80e-05s  0.00e+00d  [DetectDifferentVariables] 
  5.92e-04s  6.93e-05d  [ProcessSetPPC] #relevant_constraints=2'978 #num_inclusions=83 
  2.29e-04s  3.27e-05d  [TransformClausesToExactlyOne] #num_amos=474 #num_clauses=1'640 #num_checked=1'640 
  3.37e-05s  0.00e+00d  [DetectEncodedComplexDomains] 
  2.84e-05s  2.60e-07d  [FindAlmostIdenticalLinearConstraints] #num_tested_pairs=3 
  6.41e-04s  9.89e-04d  [FindBigAtMostOneAndLinearOverlap] 
  9.47e-04s  8.70e-04d  [FindBigVerticalLinearOverlap] 
  2.78e-04s  5.95e-04d  [FindBigHorizontalLinearOverlap] #linears=454 
  2.69e-04s  2.58e-05d  [MergeClauses] #num_collisions=72 #num_merges=72 #num_saved_literals=218 
  6.93e-04s  0.00e+00d  [DetectDominanceRelations] 
  2.33e-03s  0.00e+00d  [PresolveToFixPoint] #num_loops=1 #num_dual_strengthening=1 
  6.82e-04s  0.00e+00d  [DetectDominanceRelations] 
  2.32e-03s  0.00e+00d  [PresolveToFixPoint] #num_loops=1 #num_dual_strengthening=1 
  1.46e-04s  0.00e+00d  [DetectDuplicateColumns] 
  7.81e-05s  0.00e+00d  [DetectDuplicateConstraints] 
[Symmetry] Graph for symmetry has 4'170 nodes and 12'729 arcs.
[Symmetry] Symmetry computation done. time: 0.000715164 dtime: 0.00124296
[SAT presolve] num removable Booleans: 88 / 460
[SAT presolve] num trivial clauses: 0
[SAT presolve] [0s] clauses:2'064 literals:6'003 vars:435 one_side_vars:189 simple_definition:54 singleton_clauses:0
[SAT presolve] [0.000163115s] clauses:2'064 literals:6'003 vars:435 one_side_vars:189 simple_definition:54 singleton_clauses:0
[SAT presolve] [0.000216616s] clauses:2'064 literals:6'003 vars:435 one_side_vars:189 simple_definition:54 singleton_clauses:0
  1.07e-04s  0.00e+00d  [DetectDuplicateConstraintsWithDifferentEnforcements] 
  4.16e-03s  1.87e-03d  [Probe] #probed=1'250 #new_binary_clauses=549 
  3.20e-04s  2.85e-04d  [MaxClique] 
  7.03e-04s  0.00e+00d  [DetectDominanceRelations] 
  2.37e-03s  0.00e+00d  [PresolveToFixPoint] #num_loops=1 #num_dual_strengthening=1 
  8.44e-04s  0.00e+00d  [ProcessAtMostOneAndLinear] 
  8.67e-05s  0.00e+00d  [DetectDuplicateConstraints] 
  7.09e-05s  0.00e+00d  [DetectDuplicateConstraintsWithDifferentEnforcements] 
  1.31e-03s  6.29e-05d  [DetectDominatedLinearConstraints] #relevant_constraints=818 #num_inclusions=356 
  1.00e-04s  0.00e+00d  [DetectDifferentVariables] 
  5.88e-04s  6.91e-05d  [ProcessSetPPC] #relevant_constraints=2'977 #num_inclusions=80 
  2.36e-04s  3.27e-05d  [TransformClausesToExactlyOne] #num_amos=472 #num_clauses=1'642 #num_checked=1'642 
  3.96e-05s  0.00e+00d  [DetectEncodedComplexDomains] 
  3.11e-05s  0.00e+00d  [FindAlmostIdenticalLinearConstraints] 
  6.40e-04s  9.90e-04d  [FindBigAtMostOneAndLinearOverlap] 
  9.79e-04s  8.61e-04d  [FindBigVerticalLinearOverlap] #blocks=1 #saved_nz=31 
  2.66e-04s  5.68e-04d  [FindBigHorizontalLinearOverlap] #linears=452 
  2.69e-04s  2.58e-05d  [MergeClauses] #num_collisions=73 #num_merges=73 #num_saved_literals=220 
  7.16e-04s  0.00e+00d  [DetectDominanceRelations] 
  2.41e-03s  0.00e+00d  [PresolveToFixPoint] #num_loops=2 #num_dual_strengthening=1 
  1.63e-05s  0.00e+00d  [MergeNoOverlap] 
  1.54e-05s  0.00e+00d  [MergeNoOverlap2D] 

Presolve summary:
  - 31 affine relations were detected.
  - rule 'TODO dual: only one blocking constraint?' was applied 809 times.
  - rule 'TODO dual: tighten at most one' was applied 8 times.
  - rule 'TODO linear inclusion: superset is equality' was applied 212 times.
  - rule 'affine: new relation' was applied 31 times.
  - rule 'at_most_one: removed literals' was applied 37 times.
  - rule 'at_most_one: size one' was applied 36 times.
  - rule 'at_most_one: transformed into max clique' was applied 2 times.
  - rule 'bool_or: implications' was applied 79 times.
  - rule 'bool_or: only one literal' was applied 12 times.
  - rule 'bool_or: removed enforcement literal' was applied 557 times.
  - rule 'deductions: 675 stored' was applied 1 time.
  - rule 'duplicate: merged rhs of linear constraint' was applied 17 times.
  - rule 'duplicate: removed constraint' was applied 18 times.
  - rule 'duplicate: removed enforced constraint' was applied 7 times.
  - rule 'enforcement: false literal' was applied 47 times.
  - rule 'enforcement: true literal' was applied 16 times.
  - rule 'exactly_one: removed literals' was applied 28 times.
  - rule 'exactly_one: satisfied' was applied 13 times.
  - rule 'exactly_one: singleton' was applied 3 times.
  - rule 'exactly_one: size two' was applied 25 times.
  - rule 'exactly_one: x and not(x)' was applied 4 times.
  - rule 'incompatible linear: add implication' was applied 117 times.
  - rule 'linear + amo: empty after processing' was applied 5 times.
  - rule 'linear + amo: extracted enforcement literal' was applied 46 times.
  - rule 'linear + amo: trivial linear constraint' was applied 1 time.
  - rule 'linear inclusion: redundant containing constraint' was applied 2 times.
  - rule 'linear inclusion: redundant included constraint' was applied 3 times.
  - rule 'linear inclusion: sparsify superset' was applied 1 time.
  - rule 'linear matrix: common vertical rectangle' was applied 4 times.
  - rule 'linear1: x in domain' was applied 36 times.
  - rule 'linear2: convert ax + by != cte to clauses' was applied 264 times.
  - rule 'linear2: convert implied ax + by == cte to clauses' was applied 114 times.
  - rule 'linear2: implied ax + by = cte has only one solution' was applied 9 times.
  - rule 'linear: always true' was applied 409 times.
  - rule 'linear: coefficient strengthening by increasing it' was applied 2 times.
  - rule 'linear: empty' was applied 1 time.
  - rule 'linear: extracted at most one (max)' was applied 1 time.
  - rule 'linear: fixed or dup variables' was applied 879 times.
  - rule 'linear: negative clause' was applied 1'290 times.
  - rule 'linear: negative reified and' was applied 68 times.
  - rule 'linear: never in domain' was applied 5 times.
  - rule 'linear: positive at most one' was applied 36 times.
  - rule 'linear: positive equal one' was applied 1 time.
  - rule 'linear: reduced variable domains' was applied 5 times.
  - rule 'linear: remapped using affine relations' was applied 22 times.
  - rule 'presolve: 99 unused variables removed.' was applied 1 time.
  - rule 'presolve: iteration' was applied 3 times.
  - rule 'probing: bool_or reduced to implication' was applied 38 times.
  - rule 'probing: simplified clauses' was applied 16 times.
  - rule 'setppc: bool_or in at_most_one' was applied 7 times.
  - rule 'setppc: exactly_one included in linear' was applied 1 time.
  - rule 'setppc: reduced linear coefficients' was applied 1 time.
  - rule 'setppc: removed dominated constraints' was applied 81 times.

Presolved satisfaction model '': (model_fingerprint: 0xccea4c685f130412)
#Variables: 464 (400 primary variables)
  - 460 Booleans in [0,1]
  - 3 in [0,2]
  - 1 in [0,6]
#kAtMostOne: 50 (#literals: 204)
#kBoolAnd: 250 (#enforced: 250) (#literals: 672)
#kBoolAndClauses: 73 (#enforced: 73 #multi: 73) (#literals: 366)
#kBoolOr: 1'496 (#literals: 4'573)
#kExactlyOne: 48 (#literals: 191)
#kLinear3: 6 (#enforced: 4)
#kLinearN: 813 (#enforced: 114) (#terms: 5'425)
[Symmetry] Graph for symmetry has 3'908 nodes and 12'697 arcs.
[Symmetry] Symmetry computation done. time: 0.000642944 dtime: 0.00124227

Preloading model.
#Model   0.07s var:464/464 constraints:2736/2736

Starting search at 0.07s with 4 workers.
3 full problem subsolvers: [default_lp, max_lp, no_lp]
1 first solution subsolver: [fj]
2 interleaved subsolvers: [feasibility_pump, rins/rens]
2 helper subsolvers: [neighborhood_helper, synchronization_agent]

#Model   3.26s var:463/464 constraints:2720/2736
#Model  22.98s var:462/464 constraints:2706/2736
#Model  80.09s var:461/464 constraints:2704/2736
#Model 244.34s var:460/464 constraints:2702/2736
#Model 342.35s var:459/464 constraints:2686/2736
#Model 980.38s var:458/464 constraints:2686/2736
#Model 1076.25s var:457/464 constraints:2664/2736
#Model 1102.87s var:456/464 constraints:2643/2736
#Model 1320.72s var:455/464 constraints:2623/2736
#Model 1331.43s var:454/464 constraints:2605/2736
#Model 1354.42s var:453/464 constraints:2590/2736
#Model 1355.92s var:452/464 constraints:2589/2736
#Model 1359.17s var:451/464 constraints:2571/2736
#Model 1360.95s var:450/464 constraints:2554/2736
#Model 1361.76s var:449/464 constraints:2540/2736
#Model 1362.32s var:448/464 constraints:2522/2736
#Model 1362.53s var:446/464 constraints:2499/2736
#Model 1364.10s var:443/464 constraints:2495/2736
#Model 1364.84s var:442/464 constraints:2477/2736
#Model 1365.05s var:439/464 constraints:2450/2736
#Model 1365.85s var:437/464 constraints:2412/2736
#Model 1365.85s var:436/464 constraints:2396/2736
#Done  1365.89s no_lp

Task timing                   n [     min,      max]      avg      dev     time         n [     min,      max]      avg      dev    dtime
        'default_lp':         1 [  22.76m,   22.76m]   22.76m   0.00ns   22.76m         2 [  2.00ms,   26.82m]   13.41m   13.41m   26.82m
  'feasibility_pump':      7302 [812.64us,  98.42ms]   1.31ms   1.16ms    9.57s      7301 [275.82us, 107.92ms] 292.56us   1.26ms    2.14s
                'fj':      7122 [ 50.12ms, 127.55ms] 102.53ms   6.62ms   12.17m      7122 [ 40.75ms, 100.14ms] 100.01ms 702.39us   11.87m
            'max_lp':         1 [  22.76m,   22.76m]   22.76m   0.00ns   22.76m         2 [ 80.96ms,   35.75m]   17.88m   17.87m   35.75m
             'no_lp':         1 [  22.76m,   22.76m]   22.76m   0.00ns   22.76m         2 [  1.69ms,   55.26m]   27.63m   27.63m   55.26m
         'rins/rens':      7302 [ 15.74ms, 146.75ms]  85.60ms  33.15ms   10.42m      7302 [296.62us, 100.27ms]  67.54ms  37.71ms    8.22m

Search stats     Bools   Conflicts    Branches  Restarts  BacktrackToRoot   Backtrack     BoolPropag  IntegerPropag
  'default_lp':    460     159'375   6'430'378       938        1'005'858   1'417'806     66'544'494     80'142'232
      'max_lp':    460     120'985   9'026'065       592        1'374'569   1'799'615     91'974'768    115'971'957
       'no_lp':    460  15'380'443  21'185'300    53'138          461'163  15'757'843  1'246'794'609    324'298'941

SAT formula      Fixed  Equiv  Total  VarLeft  BinaryClauses  PermanentClauses  TemporaryClauses
  'default_lp':    225     22    460      213            966               530                 2
      'max_lp':     25      4    460      431          3'360            24'209             2'974
       'no_lp':    159      6    460      295          3'192            46'396             6'842

SAT stats        ClassicMinim   LitRemoved  LitRemovedBinary   LitLearned  LitForgotten   Subsumed
  'default_lp':       135'887    1'597'297           965'189    3'995'332     2'256'064     64'133
      'max_lp':       102'170    1'197'495           699'350    2'633'742     1'306'112     43'272
       'no_lp':    13'930'040  231'154'015       103'030'428  345'954'592   269'661'082  4'361'016

Vivification       Clauses  Decisions  LitTrue  Subsumed  LitRemoved  DecisionReused  Conflicts
  'default_lp':  1'061'743  6'043'088        4    20'900     203'589         321'102      2'263
      'max_lp':  1'419'772  8'623'955        2    23'627     235'046         393'305      2'693
       'no_lp':    350'309  2'991'381        4    24'391     328'091          94'642      2'091

Clause deletion    at_true  l_and_not(l)  to_binary  sub_conflict  sub_extra  sub_decisions  sub_eager  sub_vivify  sub_probing  sub_inpro  blocked  eliminated   forgotten    promoted   conflicts
    'default_lp':   37'165         5'913        273        63'014        435          2'175      1'119      20'900        9'116     23'845        0           0      67'785     309'360     159'375
        'max_lp':   12'381             0         29        42'780        318          1'068        492      23'627       11'192     25'930        0           0      48'114     238'558     120'985
         'no_lp':   56'878            12         82     4'277'084     28'884        179'654     83'932      24'391       28'409    187'819        0           0  10'467'481  34'893'252  15'380'443

Lp stats         Component  Iterations  AddedCuts  OPTIMAL  DUAL_F.  DUAL_U.
  'default_lp':          1  19'712'892     59'628  209'645        0  113'231
      'max_lp':          1   9'755'170     71'460   35'828   88'687   28'498

Lp dimension        Final dimension of first component
  'default_lp':    275 rows, 335 columns, 3071 entries
      'max_lp':  1257 rows, 464 columns, 31778 entries

Lp debug         CutPropag  CutEqPropag   Adjust  Overflow        Bad  BadScaling
  'default_lp':          0           36  113'231         0  2'020'984           0
      'max_lp':          0           15   28'497         0  2'122'338           0

Lp pool          Constraints  Updates  Simplif  Merged  Shortened  Split  Strengthened       Cuts/Call
  'default_lp':       10'407   12'888   19'322       0     19'417  1'596             0   59'628/91'507
      'max_lp':       12'519   24'630   26'685       0     26'079  2'888         1'713  71'460/133'451

Lp Cut            max_lp  default_lp
          CG_FF:      76         791
           CG_K:       5         418
          CG_KL:       3         386
           CG_R:      38         873
          CG_RB:       2          33
         CG_RBP:       -           8
         Clique:     197           -
             IB:      12          38
       MIR_1_FF:     727         424
        MIR_1_K:      22          90
       MIR_1_KL:      34         284
        MIR_1_R:     476         361
       MIR_1_RB:       -           2
      MIR_1_RBP:       1           1
      MIR_1_RLT:   6'481           -
       MIR_2_FF:     788         343
        MIR_2_K:     139          48
       MIR_2_KL:     106         176
        MIR_2_R:     809         382
       MIR_2_RB:       4           3
      MIR_2_RBP:       4           -
       MIR_3_FF:     178         213
        MIR_3_K:      29          21
       MIR_3_KL:      11          74
        MIR_3_R:     289         167
       MIR_3_RB:       -           5
      MIR_3_RBP:       2           2
       MIR_4_FF:      40          86
        MIR_4_K:       9          16
       MIR_4_KL:       2          40
        MIR_4_R:     242         122
       MIR_4_RB:       3           3
      MIR_4_RBP:       8           1
       MIR_5_FF:      16          20
        MIR_5_K:       3           3
       MIR_5_KL:       1           9
        MIR_5_R:     207          63
       MIR_5_RB:       -           2
      MIR_5_RBP:       2           2
       MIR_6_FF:       8          15
        MIR_6_K:       1           2
       MIR_6_KL:       -           3
        MIR_6_R:     251          47
       MIR_6_RB:       1           4
      MIR_6_RBP:       9           2
   ZERO_HALF_FF:     398         230
    ZERO_HALF_K:      15          32
   ZERO_HALF_KL:       5          77
    ZERO_HALF_R:  59'768      53'663
   ZERO_HALF_RB:       3           5
  ZERO_HALF_RBP:      35          38

LNS stats       Improv/Calls  Closed  Difficulty  TimeLimit
  'rins/rens':     7302/7302     50%    7.95e-01       0.10

LS stats                                    Batches  Restarts/Perturbs    LinMoves    GenMoves  CompoundMoves  Bactracks  WeightUpdates  ScoreComputed
                             'fj_restart':      257                 89   7'105'898           0              0          0      6'034'387      9'302'001
                    'fj_restart_compound':      441                 96           0   4'687'615        256'978  2'215'083         11'191     79'542'952
                'fj_restart_compound_obj':      366                101           0   3'837'940        243'680  1'796'937          8'969     65'959'353
            'fj_restart_compound_perturb':      380                 86           0   4'034'308        227'343  1'903'341          9'738     68'618'855
        'fj_restart_compound_perturb_obj':      499                114           0   5'143'555        268'195  2'437'493         14'100     90'280'907
                       'fj_restart_decay':      344                110  10'061'787           0              0          0        459'356      5'632'223
              'fj_restart_decay_compound':      245                104           0   2'664'775        445'764  1'109'277          3'235     44'021'635
          'fj_restart_decay_compound_obj':      462                101           0   5'362'031        878'779  2'241'393          5'985     83'583'333
      'fj_restart_decay_compound_perturb':      343                 83           0   3'925'288        646'213  1'639'364          4'461     61'984'926
  'fj_restart_decay_compound_perturb_obj':      902                117           0  10'823'064      1'773'077  4'524'706         11'634    163'708'832
                   'fj_restart_decay_obj':      272                104   7'936'716           0              0          0        363'363      4'464'786
               'fj_restart_decay_perturb':      709                111  20'725'861           0              0          0        946'650     11'612'399
           'fj_restart_decay_perturb_obj':      590                103  17'255'147           0              0          0        787'652      9'679'436
                         'fj_restart_obj':      302                 92   8'235'690           0              0          0      7'246'006     10'321'272
                     'fj_restart_perturb':      502                 87  13'425'392           0              0          0     11'774'573     18'473'900
                 'fj_restart_perturb_obj':      508                 98  14'041'825           0              0          0     12'375'666     17'505'583

Solution repositories    Added  Queried  Synchro
    'alternative_path':      0        0        0
      'best_solutions':      0        0        0
   'fj solution hints':  1'588        0    1'588
        'lp solutions':  1'174    7'302    1'165
                'pump':      0        0

Improving bounds shared    Num  Sym
            'default_lp':  149    0
                'max_lp':    6    0
                 'no_lp':   73    0

Clauses shared    #Exported  #Imported  #BinaryRead  #BinaryTotal
   'default_lp':      5'516     73'722        1'653         1'653
       'max_lp':      6'531     72'382        1'377         1'653
        'no_lp':     71'543     11'588        1'425         1'653

LRAT_status: NA
CpSolverResponse summary:
status: INFEASIBLE
objective: NA
best_bound: NA
integers: 348
booleans: 460
conflicts: 15380443
branches: 21185300
propagations: 1246794609
integer_propagations: 324298941
restarts: 53138
lp_iterations: 0
walltime: 1365.92
usertime: 1365.92
deterministic_time: 8277.26
gap_integral: 0

{
  "board_size": 22,
  "parity_proved": 0,
  "target": 34,
  "child_id": 802,
  "child_count": 2640,
  "partition": "unknown_pair_x_diag_plus_twos_x_diag_minus_twos",
  "build_seconds": 0.06488227844238281,
  "workers": 4,
  "requested_seed": 2026072902,
  "effective_seed": 2026072902,
  "main_diagonal_pair": [
    2,
    8
  ],
  "pair_index": 45,
  "diag_plus_twos": 16,
  "diag_minus_twos": 16,
  "pair_excess": 22,
  "residual_certificate_slack": 90,
  "analytic_minimum_line_defect": 24,
  "analytic_defect_details": {
    "row_costs": {
      "12": 6,
      "13": 3,
      "14": 0,
      "15": 0,
      "16": 0,
      "17": 0
    },
    "column_costs": {
      "12": 6,
      "13": 3,
      "14": 0,
      "15": 0,
      "16": 0,
      "17": 0
    },
    "plus_cost": 24,
    "minus_cost": 0,
    "row_column_minimum": 0
  },
  "maximal_line_constraints": 2455,
  "analytic_infeasible": false,
  "allowed_points": 242,
  "status": "INFEASIBLE",
  "proof_method": "cp_sat_all_lines_with_certificate_profile_cuts",
  "elapsed_seconds": 1365.916187763214,
  "branches": 21185300,
  "conflicts": 15380443
}
